<instance format="XCSP3" type="CSP">
  <variables>
    <var id="x0"> 5 8 9 15 </var>
    <var id="x1"> 5 8 9 </var>
    <var id="x2"> 8 12 </var>
    <var id="x3"> 4 9 </var>
    <var id="x4"> 5 7 9 </var>
    <var id="x5"> 5 7 </var>
    <var id="x6"> 3 7 9 </var>
    <var id="x7"> 4 5 7 8 15 </var>
    <var id="x8"> 2 11 17 </var>
    <var id="x9"> 2 3 7 17 </var>
    <var id="x10"> 3 7 16 17 </var>
    <var id="x11"> 2 5 7 11 16 17 </var>
    <var id="x12"> 2 5 7 13 17 </var>
    <var id="x13"> 3 7 11 13 </var>
    <var id="x14"> 11 13 16 17 </var>
    <var id="x15"> 5 7 16 </var>
    <var id="x16"> 5 7 16 17 </var>
    <var id="x17"> 0 2 12 14 17 </var>
    <var id="x18"> 0 2 7 12 17 </var>
    <var id="x19"> 2 5 7 14 </var>
    <var id="x20"> 0 7 16 17 </var>
    <var id="x21"> 0 7 12 </var>
    <var id="x22"> 0 7 </var>
    <var id="x23"> 5 7 16 </var>
    <var id="x24"> 0 9 11 13 16 </var>
    <var id="x25"> 0 7 15 </var>
    <var id="x26"> 7 9 14 </var>
    <var id="x27"> 7 9 11 13 14 </var>
    <var id="x28"> 0 7 15 16 </var>
    <var id="x29"> 7 13 14 </var>
    <var id="x30"> 0 7 9 11 13 </var>
    <var id="x31"> 11 13..16 </var>
    <var id="x32"> 1 2 11 14 17 </var>
    <var id="x33"> 2 6 14 15 </var>
    <var id="x34"> 1 6 7 11 14 </var>
    <var id="x35"> 1 7 15 17 </var>
    <var id="x36"> 2 6 7 11 17 </var>
    <var id="x37"> 6 7 14 17 </var>
    <var id="x38"> 1 7 11 </var>
    <var id="x39"> 1 6 7 11 </var>
    <var id="x40"> 5 10 11 </var>
    <var id="x41"> 0 2 11 14 </var>
    <var id="x42"> 0 2 4 5 14 </var>
    <var id="x43"> 0 2 4 10 11 13 </var>
    <var id="x44"> 0 2 5 11 </var>
    <var id="x45"> 4 5 13 14 </var>
    <var id="x46"> 11 13 14 </var>
    <var id="x47"> 4 5 10 </var>
    <var id="x48"> 5..7 12 </var>
    <var id="x49"> 5 </var>
    <var id="x50"> 5 7 17 </var>
    <var id="x51"> 2 3 7 12 17 </var>
    <var id="x52"> 2 5 7 </var>
    <var id="x53"> 3 7 17 </var>
    <var id="x54"> 12 17 </var>
    <var id="x55"> 6 11 16 </var>
    <var id="x56"> 9 11 16 17 </var>
    <var id="x57"> 2 4 6 9 </var>
    <var id="x58"> 2 4 17 </var>
    <var id="x59"> 1 6 9 11 </var>
    <var id="x60"> 1 9 11 </var>
    <var id="x61"> 2 9 17 </var>
    <var id="x62"> 11 16 17 </var>
    <var id="x63"> 8 14 </var>
    <var id="x64"> 0 1 8 14 </var>
    <var id="x65"> 0 </var>
    <var id="x66"> 0 7 15 </var>
    <var id="x67"> 0 1 7 </var>
    <var id="x68"> 0 1 6 7 </var>
    <var id="x69"> 14 15 </var>
    <var id="x70"> 4 9 13 16 </var>
    <var id="x71"> 1 7 16 </var>
    <var id="x72"> 5 7 16 </var>
    <var id="x73"> 4 5 7 13 14 </var>
    <var id="x74"> 5 7 9 13 14 </var>
    <var id="x75"> 1 7 9 13 </var>
    <var id="x76"> 13 14 16 </var>
    <var id="x77"> 1 4 5 7 16 </var>
    <var id="x78"> 5 7 </var>
    <var id="x79"> 5 9 13 </var>
    <var id="x80"> 0 17 </var>
    <var id="x81"> 0 4 5 9 </var>
    <var id="x82"> 0 4 7 17 </var>
    <var id="x83"> 0 7 9 13 </var>
    <var id="x84"> 5 7 9 13 17 </var>
    <var id="x85"> 8 11 13 16 </var>
    <var id="x86"> 2 8 16 </var>
    <var id="x87"> 2 10 11 13 16 </var>
    <var id="x88"> 1 3 10 16 </var>
    <var id="x89"> 2 11 16 </var>
    <var id="x90"> 3 13 </var>
    <var id="x91"> 2 13 </var>
    <var id="x92"> 1 8 10 16 </var>
    <var id="x93"> 5 7 8 13 16 </var>
    <var id="x94"> 5 8 16 </var>
    <var id="x95"> 5 15 </var>
    <var id="x96"> 10 13 16 </var>
    <var id="x97"> 7 12 15 </var>
    <var id="x98"> 5 7 8 </var>
    <var id="x99"> 5 7 13 </var>
    <var id="x100"> 5 7 13 </var>
    <var id="x101"> 8..10 </var>
    <var id="x102"> 8 9 17 </var>
    <var id="x103"> 0 4 9 </var>
    <var id="x104"> 0 4 9..11 </var>
    <var id="x105"> 4 8 9 </var>
    <var id="x106"> 3 4 17 </var>
    <var id="x107"> 0 3 9 11 </var>
    <var id="x108"> 4 8 10 </var>
    <var id="x109"> 5 11 12 </var>
    <var id="x110"> 5 9 13 14 </var>
    <var id="x111"> 5 9 11 13 </var>
    <var id="x112"> 0 5 9 14 </var>
    <var id="x113"> 1 5 9 14 </var>
    <var id="x114"> 1 5 9 11 13 14 </var>
    <var id="x115"> 0 1 9 11..13 </var>
    <var id="x116"> 5 9 12..14 </var>
    <var id="x117"> 9 10 14 16 </var>
    <var id="x118"> 9 16 17 </var>
    <var id="x119"> 9 14 16 17 </var>
    <var id="x120"> 0 1 14 17 </var>
    <var id="x121"> 0 1 10 16 17 </var>
    <var id="x122"> 0 6 16 17 </var>
    <var id="x123"> 9 14 17 </var>
    <var id="x124"> 0 1 6 9 </var>
    <var id="x125"> 5..7 16 </var>
    <var id="x126"> 5 8 9 14..16 </var>
    <var id="x127"> 5 7..9 16 </var>
    <var id="x128"> 5 6 9 14 15 </var>
    <var id="x129"> 5 7..9 14 </var>
    <var id="x130"> 5..7 9 14 </var>
    <var id="x131"> 5 7 9 14 </var>
    <var id="x132"> 5 7 8 15 16 </var>
    <var id="x133"> 5 7 11 12 </var>
    <var id="x134"> 5 9 13 </var>
    <var id="x135"> 2 5 9 17 </var>
    <var id="x136"> 2 5 7 9 </var>
    <var id="x137"> 5 7 9 11 13 </var>
    <var id="x138"> 2 5 7 11 17 </var>
    <var id="x139"> 5 7 13 17 </var>
    <var id="x140"> 7 9 11..13 </var>
  </variables>
  <constraints>
    <group>
      <allDifferent> %... </allDifferent>
      <args> x0 x1 x2 x3 x4 x5 x6 x7 </args>
      <args> x8 x9 x10 x11 x12 x13 x14 x15 </args>
      <args> x16 x17 x18 x19 x20 x21 x22 x23 </args>
      <args> x24 x25 x26 x27 x28 x29 x30 x31 </args>
      <args> x32 x33 x34 x35 x36 x37 x38 x39 </args>
      <args> x40 x41 x42 x43 x44 x45 x46 x47 </args>
      <args> x48 x49 x50 x51 x52 x53 x54 </args>
      <args> x55 x56 x57 x58 x59 x60 x61 x62 </args>
      <args> x63 x64 x65 x66 x67 x68 x69 </args>
      <args> x70 x71 x72 x73 x74 x75 x76 x77 </args>
      <args> x78 x79 x80 x81 x82 x83 x84 </args>
      <args> x85 x86 x87 x88 x89 x90 x91 x92 </args>
      <args> x93 x94 x95 x96 x97 x98 x99 x100 </args>
      <args> x101 x102 x103 x104 x105 x106 x107 x108 </args>
      <args> x109 x110 x111 x112 x113 x114 x115 x116 </args>
      <args> x117 x118 x119 x120 x121 x122 x123 x124 </args>
      <args> x125 x126 x127 x128 x129 x130 x131 x132 </args>
      <args> x133 x134 x135 x136 x137 x138 x139 x140 </args>
      <args> x40 x48 x55 x78 x109 x125 x133 </args>
      <args> x0 x49 x79 x101 x110 x117 x126 x134 </args>
      <args> x16 x50 x56 x85 x93 x111 x118 x127 </args>
      <args> x1 x63 x86 x94 x102 x119 x135 </args>
      <args> x2 x8 x17 x32 x41 x64 x80 x120 </args>
      <args> x33 x42 x57 x81 x95 x103 x112 x128 </args>
      <args> x3 x24 x43 x65 x70 x87 x96 x104 </args>
      <args> x9 x18 x25 x51 x58 x66 x82 x97 </args>
      <args> x19 x26 x52 x98 x105 x113 x129 x136 </args>
      <args> x4 x27 x34 x59 x99 x114 x130 x137 </args>
      <args> x10 x20 x28 x35 x53 x71 x88 x121 </args>
      <args> x5 x11 x36 x44 x72 x89 x122 x138 </args>
      <args> x29 x37 x45 x73 x90 x100 x106 x139 </args>
      <args> x21 x38 x60 x67 x83 x107 x115 x140 </args>
      <args> x12 x61 x74 x84 x91 x116 x123 x131 </args>
      <args> x6 x13 x22 x30 x39 x68 x75 x124 </args>
      <args> x14 x31 x46 x54 x62 x69 x76 </args>
      <args> x7 x15 x23 x47 x77 x92 x108 x132 </args>
    </group>
  </constraints>
</instance>

